20
587 233 220
77 42 30
98 45 28
61 58 32
92 77 61
58 44 27
108 72 50
93 72 71
111 49 30
79 66 49
85 74 39
106 34 33
113 91 76
57 49 43
103 80 27
74 66 31
112 66 29
110 83 67
119 56 36
97 87 22
53 31 25
thpack7_76